p edge 118 318
e 11 23
e 11 100
e 23 100
e 14 40
e 14 65
e 14 72
e 14 73
e 14 76
e 40 65
e 40 72
e 40 73
e 40 76
e 65 72
e 65 73
e 65 76
e 72 73
e 72 76
e 73 76
e 12 13
e 12 23
e 13 23
e 31 54
e 31 88
e 54 88
e 18 19
e 18 62
e 18 95
e 19 62
e 19 95
e 62 95
e 94 99
e 94 104
e 94 114
e 99 104
e 99 114
e 104 114
e 47 48
e 47 54
e 47 108
e 48 54
e 48 108
e 54 108
e 31 32
e 31 49
e 32 49
e 65 78
e 65 80
e 78 80
e 72 77
e 72 79
e 72 90
e 72 91
e 72 95
e 76 77
e 76 79
e 76 90
e 76 91
e 76 95
e 77 79
e 77 90
e 77 91
e 77 95
e 79 90
e 79 91
e 79 95
e 90 91
e 90 95
e 91 95
e 69 86
e 45 84
e 40 50
e 50 73
e 65 90
e 65 91
e 78 90
e 78 91
e 80 90
e 80 91
e 63 71
e 63 77
e 63 79
e 71 77
e 71 79
e 70 84
e 70 87
e 70 95
e 70 109
e 84 87
e 84 95
e 84 109
e 87 95
e 87 109
e 95 109
e 41 111
e 41 112
e 41 113
e 111 112
e 111 113
e 112 113
e 107 110
e 29 74
e 29 100
e 74 100
e 28 101
e 55 105
e 55 112
e 105 112
e 26 102
e 24 64
e 24 105
e 64 105
e 64 87
e 38 46
e 38 90
e 38 91
e 38 113
e 46 90
e 46 91
e 46 113
e 90 113
e 91 113
e 39 98
e 35 36
e 35 37
e 36 37
e 2 33
e 2 34
e 2 53
e 33 34
e 33 53
e 34 53
e 15 84
e 15 113
e 84 113
e 46 87
e 17 32
e 17 63
e 32 63
e 77 84
e 79 84
e 65 66
e 65 67
e 65 87
e 65 95
e 65 109
e 66 67
e 66 87
e 66 95
e 66 109
e 67 87
e 67 95
e 67 109
e 78 109
e 80 109
e 90 109
e 91 109
e 66 68
e 67 68
e 68 87
e 97 117
e 74 82
e 74 89
e 82 89
e 82 100
e 89 100
e 55 93
e 55 102
e 93 102
e 2 104
e 2 105
e 104 105
e 47 94
e 47 99
e 54 94
e 54 99
e 48 49
e 48 63
e 49 63
e 49 108
e 63 108
e 47 53
e 53 54
e 53 94
e 48 95
e 49 95
e 105 118
e 99 116
e 75 83
e 75 88
e 75 94
e 75 104
e 75 108
e 83 88
e 83 94
e 83 104
e 83 108
e 88 94
e 88 104
e 88 108
e 94 108
e 104 108
e 9 100
e 102 103
e 102 104
e 102 105
e 103 104
e 103 105
e 93 97
e 58 69
e 58 86
e 44 45
e 44 87
e 45 87
e 75 97
e 75 102
e 83 97
e 83 102
e 97 102
e 25 89
e 10 44
e 10 50
e 44 50
e 83 89
e 25 44
e 70 76
e 71 72
e 71 73
e 71 109
e 72 109
e 73 109
e 6 30
e 6 68
e 30 68
e 92 96
e 82 99
e 82 102
e 82 116
e 99 102
e 102 116
e 3 5
e 3 75
e 3 83
e 3 94
e 3 108
e 5 75
e 5 83
e 5 94
e 5 108
e 58 88
e 58 89
e 58 103
e 88 89
e 88 103
e 89 103
e 1 7
e 1 97
e 7 97
e 75 82
e 59 60
e 59 86
e 59 97
e 60 86
e 60 97
e 86 97
e 69 102
e 4 5
e 4 58
e 4 83
e 4 89
e 5 58
e 5 89
e 58 83
e 73 81
e 73 92
e 81 92
e 70 71
e 70 92
e 71 92
e 21 76
e 109 110
e 20 22
e 52 109
e 81 110
e 106 111
e 16 52
e 16 106
e 52 106
e 51 81
e 51 106
e 51 111
e 81 106
e 81 111
e 42 43
e 42 108
e 43 108
e 57 61
e 60 88
e 60 94
e 59 103
e 59 108
e 103 108
e 56 86
e 85 101
e 85 103
e 85 110
e 85 115
e 101 103
e 101 110
e 101 115
e 103 110
e 103 115
e 110 115
e 60 101
e 86 88
e 86 101
e 88 101
e 27 56
e 8 57
